function string: get_day(days: d) = 
    if d = 1    then "26/12/2022"
    elseif d= 1 then "26/12/2022" 
    elseif d= 2 then "27/12/2022" 
    elseif d= 3 then "28/12/2022" 
    elseif d= 4 then "29/12/2022" 
    elseif d= 5 then "30/12/2022" 
    elseif d= 6 then "31/12/2022" 
    elseif d= 7 then "01/01/2023" 
    elseif d= 8 then "02/01/2023" 
    elseif d= 9 then "03/01/2023" 
    elseif d= 10 then "04/01/2023" 
    elseif d= 11 then "05/01/2023" 
    elseif d= 12 then "06/01/2023" 
    elseif d= 13 then "07/01/2023" 
    elseif d= 14 then "08/01/2023" 
    elseif d= 15 then "09/01/2023" 
    elseif d= 16 then "10/01/2023" 
    elseif d= 17 then "11/01/2023" 
    elseif d= 18 then "12/01/2023" 
    elseif d= 19 then "13/01/2023" 
    elseif d= 20 then "14/01/2023" 
    elseif d= 21 then "15/01/2023" 
    elseif d= 22 then "16/01/2023" 
    elseif d= 23 then "17/01/2023" 
    elseif d= 24 then "18/01/2023" 
    elseif d= 25 then "19/01/2023" 
    elseif d= 26 then "20/01/2023" 
    elseif d= 27 then "21/01/2023" 
    elseif d= 28 then "22/01/2023" 
    elseif d= 29 then "23/01/2023" 
    elseif d= 30 then "24/01/2023" 
    elseif d= 31 then "25/01/2023" 
    elseif d= 32 then "26/01/2023" 
    elseif d= 33 then "27/01/2023" 
    elseif d= 34 then "28/01/2023" 
    elseif d= 35 then "29/01/2023" 
    elseif d= 36 then "30/01/2023" 
    elseif d= 37 then "31/01/2023" 
    elseif d= 38 then "01/02/2023" 
    elseif d= 39 then "02/02/2023" 
    elseif d= 40 then "03/02/2023" 
    elseif d= 41 then "04/02/2023" 
    elseif d= 42 then "05/02/2023" 
    elseif d= 43 then "06/02/2023" 
    elseif d= 44 then "07/02/2023" 
    elseif d= 45 then "08/02/2023" 
    elseif d= 46 then "09/02/2023" 
    elseif d= 47 then "10/02/2023" 
    elseif d= 48 then "11/02/2023" 
    elseif d= 49 then "12/02/2023" 
    elseif d= 50 then "13/02/2023" 
    elseif d= 51 then "14/02/2023" 
    elseif d= 52 then "15/02/2023" 
    elseif d= 53 then "16/02/2023" 
    elseif d= 54 then "17/02/2023" 
    elseif d= 55 then "18/02/2023" 
    elseif d= 56 then "19/02/2023" 
    elseif d= 57 then "20/02/2023" 
    elseif d= 58 then "21/02/2023" 
    elseif d= 59 then "22/02/2023" 
    elseif d= 60 then "23/02/2023" 
    elseif d= 61 then "24/02/2023" 
    elseif d= 62 then "25/02/2023" 
    elseif d= 63 then "26/02/2023" 
    elseif d= 64 then "27/02/2023" 
    elseif d= 65 then "28/02/2023" 
    elseif d= 66 then "01/03/2023" 
    elseif d= 67 then "02/03/2023" 
    elseif d= 68 then "03/03/2023" 
    elseif d= 69 then "04/03/2023" 
    elseif d= 70 then "05/03/2023" 
 else "nuffin"
 endif; % end of the big if